files/upTests/_functions/matrixFunc/0002.eprime.solution
language ESSENCE' 1.0
$ minion Nodes: 7
$ minion TotalTime: 0.001131
$ Savile Row TotalTime: 0.282
letting pain_AsReln_RelationAsSet_SetExplicitVarSize_tuple2_tuple2 be [[-1, -1, -1, -1;int(1..4)];int(1)]
letting pain_AsReln_RelationAsSet_SetExplicitVarSize_tuple1 be [[true, true, false, false;int(1..4)];int(1)]
letting pain_AsReln_RelationAsSet_SetExplicitVarSize_tuple2_tuple1 be [[1, 2, 1, 1;int(1..4)];int(1)]
